10
0.00 5.00 8.60 10.05 12.81 14.14 18.38 20.00 21.21 24.21
5.00 0.00 4.12 7.00 9.00 11.18 15.00 17.00 19.00 22.00
8.60 4.12 0.00 2.83 5.83 8.60 12.81 14.14 16.03 18.02
10.05 7.00 2.83 0.00 3.61 6.71 10.00 11.18 13.00 15.00
12.81 9.00 5.83 3.61 0.00 3.16 7.81 9.00 11.00 13.00
14.14 11.18 8.60 6.71 3.16 0.00 4.12 5.00 7.00 9.00
18.38 15.00 12.81 10.00 7.81 4.12 0.00 2.24 4.12 6.32
20.00 17.00 14.14 11.18 9.00 5.00 2.24 0.00 2.83 4.47
21.21 19.00 16.03 13.00 11.00 7.00 4.12 2.83 0.00 3.00
24.21 22.00 18.02 15.00 13.00 9.00 6.32 4.47 3.00 0.00
